ACTORES = {Actor0, Actor1, Actor2, Actor3, Actor4, Actor5, Actor6, Actor7, Actor8, Actor9, Actor10, Actor11, Actor12, Actor13, Actor14};
Escenas =[|1,0,1,1,0,1,0,1,0,0,0,1,1,0,1,4
		  |0,1,1,1,1,0,1,1,0,1,0,1,0,0,0,15
		  |1,0,1,1,1,1,0,1,0,0,0,0,1,0,1,12
		  |1,1,1,0,1,0,0,0,1,1,1,1,1,1,0,9
		  |0,1,1,1,1,1,0,0,1,1,0,0,0,0,1,20
		  |0,0,0,1,1,0,0,1,0,1,1,1,1,1,0,8
		  |1,1,1,1,0,1,1,1,0,0,1,1,1,0,1,7
		  |1,0,0,1,0,0,0,0,0,1,0,0,1,0,0,9
		  |0,0,0,1,0,1,1,1,1,0,0,1,1,0,1,11
		  |1,1,1,1,0,1,1,1,1,1,1,0,0,1,1,2
		  |1,0,0,1,1,0,0,1,0,0,1,1,0,1,1,14
		  |0,1,1,1,1,0,1,0,0,0,1,0,1,0,1,11
		  |1,1,1,1,1,0,1,1,1,1,0,0,0,1,1,6
		  |1,0,1,1,0,0,0,1,0,1,0,0,1,1,1,8
		  |1,1,1,0,1,1,1,1,1,1,0,1,0,1,0,2
		  |];
Duracion=[2, 2, 2, 2, 1, 3, 4, 4, 4, 5, 4, 3, 5, 4, 3];